3 
4  53 
5  13 31 46 59 
6  14 29 44 59 
7  14 29 44 59 
8  14 29 45 59 
9  14 29 44 59 
10  13 28 43 58 
11  13 28 43 58 
12  13 28 43 58 
13  13 28 43 58 
14  13 28 43 58 
15  13 28 43 58 
16  13 28 43 58 
17  13 28 43 58 
18  14 29 44 59 
19  14 29 44 59 
20  14 29 47 
21  02 14 29 44 59 
22  18 33 49 
23 
0 
